; benchmark generated from python API
(set-info :status unknown)
(declare-fun cell_1_6 () Int)
(declare-fun cell_1_8 () Int)
(declare-fun cell_2_5 () Int)
(declare-fun cell_2_7 () Int)
(declare-fun cell_3_3 () Int)
(declare-fun cell_4_4 () Int)
(declare-fun cell_5_8 () Int)
(declare-fun cell_6_1 () Int)
(declare-fun cell_7_9 () Int)
(declare-fun cell_8_2 () Int)
(declare-fun cell_9_5 () Int)
(declare-fun cell_1_1 () Int)
(declare-fun cell_2_1 () Int)
(declare-fun cell_3_1 () Int)
(declare-fun cell_4_1 () Int)
(declare-fun cell_5_1 () Int)
(declare-fun cell_7_1 () Int)
(declare-fun cell_8_1 () Int)
(declare-fun cell_9_1 () Int)
(declare-fun cell_1_2 () Int)
(declare-fun cell_2_2 () Int)
(declare-fun cell_3_2 () Int)
(declare-fun cell_4_2 () Int)
(declare-fun cell_5_2 () Int)
(declare-fun cell_6_2 () Int)
(declare-fun cell_7_2 () Int)
(declare-fun cell_9_2 () Int)
(declare-fun cell_1_3 () Int)
(declare-fun cell_2_3 () Int)
(declare-fun cell_4_3 () Int)
(declare-fun cell_5_3 () Int)
(declare-fun cell_6_3 () Int)
(declare-fun cell_7_3 () Int)
(declare-fun cell_8_3 () Int)
(declare-fun cell_9_3 () Int)
(declare-fun cell_1_4 () Int)
(declare-fun cell_2_4 () Int)
(declare-fun cell_3_4 () Int)
(declare-fun cell_5_4 () Int)
(declare-fun cell_6_4 () Int)
(declare-fun cell_7_4 () Int)
(declare-fun cell_8_4 () Int)
(declare-fun cell_9_4 () Int)
(declare-fun cell_1_5 () Int)
(declare-fun cell_3_5 () Int)
(declare-fun cell_4_5 () Int)
(declare-fun cell_5_5 () Int)
(declare-fun cell_6_5 () Int)
(declare-fun cell_7_5 () Int)
(declare-fun cell_8_5 () Int)
(declare-fun cell_2_6 () Int)
(declare-fun cell_3_6 () Int)
(declare-fun cell_4_6 () Int)
(declare-fun cell_5_6 () Int)
(declare-fun cell_6_6 () Int)
(declare-fun cell_7_6 () Int)
(declare-fun cell_8_6 () Int)
(declare-fun cell_9_6 () Int)
(declare-fun cell_1_7 () Int)
(declare-fun cell_3_7 () Int)
(declare-fun cell_4_7 () Int)
(declare-fun cell_5_7 () Int)
(declare-fun cell_6_7 () Int)
(declare-fun cell_7_7 () Int)
(declare-fun cell_8_7 () Int)
(declare-fun cell_9_7 () Int)
(declare-fun cell_2_8 () Int)
(declare-fun cell_3_8 () Int)
(declare-fun cell_4_8 () Int)
(declare-fun cell_6_8 () Int)
(declare-fun cell_7_8 () Int)
(declare-fun cell_8_8 () Int)
(declare-fun cell_9_8 () Int)
(declare-fun cell_1_9 () Int)
(declare-fun cell_2_9 () Int)
(declare-fun cell_3_9 () Int)
(declare-fun cell_4_9 () Int)
(declare-fun cell_5_9 () Int)
(declare-fun cell_6_9 () Int)
(declare-fun cell_8_9 () Int)
(declare-fun cell_9_9 () Int)
(assert
 (= cell_1_6 1))
(assert
 (= cell_1_8 2))
(assert
 (= cell_2_5 2))
(assert
 (= cell_2_7 1))
(assert
 (= cell_3_3 1))
(assert
 (= cell_4_4 1))
(assert
 (= cell_5_8 1))
(assert
 (= cell_6_1 1))
(assert
 (= cell_7_9 1))
(assert
 (= cell_8_2 1))
(assert
 (= cell_9_5 1))
(assert
 (let (($x6297 (= cell_1_1 9)))
 (let (($x6404 (= cell_1_1 8)))
 (let (($x3959 (= cell_1_1 7)))
 (let (($x6316 (= cell_1_1 6)))
 (let (($x5851 (= cell_1_1 5)))
 (let (($x1051 (= cell_1_1 4)))
 (let (($x5533 (= cell_1_1 3)))
 (let (($x3066 (= cell_1_1 2)))
 (let (($x3806 (= cell_1_1 1)))
 (or $x3806 $x3066 $x5533 $x1051 $x5851 $x6316 $x3959 $x6404 $x6297)))))))))))
(assert
 (let (($x799 (= cell_2_1 9)))
 (let (($x5405 (= cell_2_1 8)))
 (let (($x1510 (= cell_2_1 7)))
 (let (($x222 (= cell_2_1 6)))
 (let (($x3817 (= cell_2_1 5)))
 (let (($x4176 (= cell_2_1 4)))
 (let (($x3856 (= cell_2_1 3)))
 (let (($x5462 (= cell_2_1 2)))
 (let (($x2178 (= cell_2_1 1)))
 (or $x2178 $x5462 $x3856 $x4176 $x3817 $x222 $x1510 $x5405 $x799)))))))))))
(assert
 (let (($x317 (= cell_3_1 9)))
 (let (($x3638 (= cell_3_1 8)))
 (let (($x1100 (= cell_3_1 7)))
 (let (($x5758 (= cell_3_1 6)))
 (let (($x1219 (= cell_3_1 5)))
 (let (($x2075 (= cell_3_1 4)))
 (let (($x2058 (= cell_3_1 3)))
 (let (($x3650 (= cell_3_1 2)))
 (let (($x2319 (= cell_3_1 1)))
 (or $x2319 $x3650 $x2058 $x2075 $x1219 $x5758 $x1100 $x3638 $x317)))))))))))
(assert
 (let (($x4108 (= cell_4_1 9)))
 (let (($x3184 (= cell_4_1 8)))
 (let (($x4342 (= cell_4_1 7)))
 (let (($x4035 (= cell_4_1 6)))
 (let (($x4201 (= cell_4_1 5)))
 (let (($x772 (= cell_4_1 4)))
 (let (($x3014 (= cell_4_1 3)))
 (let (($x915 (= cell_4_1 2)))
 (let (($x3104 (= cell_4_1 1)))
 (or $x3104 $x915 $x3014 $x772 $x4201 $x4035 $x4342 $x3184 $x4108)))))))))))
(assert
 (let (($x3870 (= cell_5_1 9)))
 (let (($x2300 (= cell_5_1 8)))
 (let (($x866 (= cell_5_1 7)))
 (let (($x4277 (= cell_5_1 6)))
 (let (($x3969 (= cell_5_1 5)))
 (let (($x4433 (= cell_5_1 4)))
 (let (($x5465 (= cell_5_1 3)))
 (let (($x4906 (= cell_5_1 2)))
 (let (($x3459 (= cell_5_1 1)))
 (or $x3459 $x4906 $x5465 $x4433 $x3969 $x4277 $x866 $x2300 $x3870)))))))))))
(assert
 (let (($x4080 (= cell_6_1 1)))
 (or $x4080 (= cell_6_1 2) (= cell_6_1 3) (= cell_6_1 4) (= cell_6_1 5) (= cell_6_1 6) (= cell_6_1 7) (= cell_6_1 8) (= cell_6_1 9))))
(assert
 (let (($x3501 (= cell_7_1 9)))
 (let (($x4810 (= cell_7_1 8)))
 (let (($x5026 (= cell_7_1 7)))
 (let (($x4058 (= cell_7_1 6)))
 (let (($x5261 (= cell_7_1 5)))
 (let (($x602 (= cell_7_1 4)))
 (let (($x5548 (= cell_7_1 3)))
 (let (($x2323 (= cell_7_1 2)))
 (let (($x5324 (= cell_7_1 1)))
 (or $x5324 $x2323 $x5548 $x602 $x5261 $x4058 $x5026 $x4810 $x3501)))))))))))
(assert
 (let (($x4130 (= cell_8_1 9)))
 (let (($x5842 (= cell_8_1 8)))
 (let (($x1783 (= cell_8_1 7)))
 (let (($x4394 (= cell_8_1 6)))
 (let (($x1088 (= cell_8_1 5)))
 (let (($x183 (= cell_8_1 4)))
 (let (($x2951 (= cell_8_1 3)))
 (let (($x1368 (= cell_8_1 2)))
 (let (($x1659 (= cell_8_1 1)))
 (or $x1659 $x1368 $x2951 $x183 $x1088 $x4394 $x1783 $x5842 $x4130)))))))))))
(assert
 (let (($x6168 (= cell_9_1 9)))
 (let (($x2950 (= cell_9_1 8)))
 (let (($x4026 (= cell_9_1 7)))
 (let (($x4551 (= cell_9_1 6)))
 (let (($x5494 (= cell_9_1 5)))
 (let (($x4738 (= cell_9_1 4)))
 (let (($x360 (= cell_9_1 3)))
 (let (($x2606 (= cell_9_1 2)))
 (let (($x1045 (= cell_9_1 1)))
 (or $x1045 $x2606 $x360 $x4738 $x5494 $x4551 $x4026 $x2950 $x6168)))))))))))
(assert
 (let (($x762 (= cell_1_2 9)))
 (let (($x429 (= cell_1_2 8)))
 (let (($x4125 (= cell_1_2 7)))
 (let (($x2127 (= cell_1_2 6)))
 (let (($x4510 (= cell_1_2 5)))
 (let (($x2626 (= cell_1_2 4)))
 (let (($x5951 (= cell_1_2 3)))
 (let (($x5204 (= cell_1_2 2)))
 (let (($x2388 (= cell_1_2 1)))
 (or $x2388 $x5204 $x5951 $x2626 $x4510 $x2127 $x4125 $x429 $x762)))))))))))
(assert
 (let (($x4498 (= cell_2_2 9)))
 (let (($x4314 (= cell_2_2 8)))
 (let (($x3306 (= cell_2_2 7)))
 (let (($x5528 (= cell_2_2 6)))
 (let (($x3518 (= cell_2_2 5)))
 (let (($x3091 (= cell_2_2 4)))
 (let (($x2446 (= cell_2_2 3)))
 (let (($x5606 (= cell_2_2 2)))
 (let (($x3718 (= cell_2_2 1)))
 (or $x3718 $x5606 $x2446 $x3091 $x3518 $x5528 $x3306 $x4314 $x4498)))))))))))
(assert
 (let (($x4199 (= cell_3_2 9)))
 (let (($x4941 (= cell_3_2 8)))
 (let (($x158 (= cell_3_2 7)))
 (let (($x1028 (= cell_3_2 6)))
 (let (($x4371 (= cell_3_2 5)))
 (let (($x1155 (= cell_3_2 4)))
 (let (($x1708 (= cell_3_2 3)))
 (let (($x5459 (= cell_3_2 2)))
 (let (($x3869 (= cell_3_2 1)))
 (or $x3869 $x5459 $x1708 $x1155 $x4371 $x1028 $x158 $x4941 $x4199)))))))))))
(assert
 (let (($x6568 (= cell_4_2 9)))
 (let (($x4780 (= cell_4_2 8)))
 (let (($x3435 (= cell_4_2 7)))
 (let (($x4308 (= cell_4_2 6)))
 (let (($x896 (= cell_4_2 5)))
 (let (($x4647 (= cell_4_2 4)))
 (let (($x1701 (= cell_4_2 3)))
 (let (($x2380 (= cell_4_2 2)))
 (let (($x4300 (= cell_4_2 1)))
 (or $x4300 $x2380 $x1701 $x4647 $x896 $x4308 $x3435 $x4780 $x6568)))))))))))
(assert
 (let (($x2923 (= cell_5_2 9)))
 (let (($x5918 (= cell_5_2 8)))
 (let (($x610 (= cell_5_2 7)))
 (let (($x5910 (= cell_5_2 6)))
 (let (($x5598 (= cell_5_2 5)))
 (let (($x2730 (= cell_5_2 4)))
 (let (($x5762 (= cell_5_2 3)))
 (let (($x2559 (= cell_5_2 2)))
 (let (($x1643 (= cell_5_2 1)))
 (or $x1643 $x2559 $x5762 $x2730 $x5598 $x5910 $x610 $x5918 $x2923)))))))))))
(assert
 (let (($x5873 (= cell_6_2 9)))
 (let (($x1463 (= cell_6_2 8)))
 (let (($x5884 (= cell_6_2 7)))
 (let (($x9474 (= cell_6_2 6)))
 (let (($x2017 (= cell_6_2 5)))
 (let (($x3953 (= cell_6_2 4)))
 (let (($x5024 (= cell_6_2 3)))
 (let (($x3915 (= cell_6_2 2)))
 (let (($x4395 (= cell_6_2 1)))
 (or $x4395 $x3915 $x5024 $x3953 $x2017 $x9474 $x5884 $x1463 $x5873)))))))))))
(assert
 (let (($x4577 (= cell_7_2 9)))
 (let (($x4077 (= cell_7_2 8)))
 (let (($x4668 (= cell_7_2 7)))
 (let (($x389 (= cell_7_2 6)))
 (let (($x4466 (= cell_7_2 5)))
 (let (($x2823 (= cell_7_2 4)))
 (let (($x1529 (= cell_7_2 3)))
 (let (($x4889 (= cell_7_2 2)))
 (let (($x4239 (= cell_7_2 1)))
 (or $x4239 $x4889 $x1529 $x2823 $x4466 $x389 $x4668 $x4077 $x4577)))))))))))
(assert
 (let (($x4582 (= cell_8_2 1)))
 (or $x4582 (= cell_8_2 2) (= cell_8_2 3) (= cell_8_2 4) (= cell_8_2 5) (= cell_8_2 6) (= cell_8_2 7) (= cell_8_2 8) (= cell_8_2 9))))
(assert
 (let (($x426 (= cell_9_2 9)))
 (let (($x2285 (= cell_9_2 8)))
 (let (($x3777 (= cell_9_2 7)))
 (let (($x8720 (= cell_9_2 6)))
 (let (($x3418 (= cell_9_2 5)))
 (let (($x2515 (= cell_9_2 4)))
 (let (($x5816 (= cell_9_2 3)))
 (let (($x1428 (= cell_9_2 2)))
 (let (($x5796 (= cell_9_2 1)))
 (or $x5796 $x1428 $x5816 $x2515 $x3418 $x8720 $x3777 $x2285 $x426)))))))))))
(assert
 (let (($x3749 (= cell_1_3 9)))
 (let (($x2769 (= cell_1_3 8)))
 (let (($x5991 (= cell_1_3 7)))
 (let (($x4911 (= cell_1_3 6)))
 (let (($x580 (= cell_1_3 5)))
 (let (($x4101 (= cell_1_3 4)))
 (let (($x2806 (= cell_1_3 3)))
 (let (($x2935 (= cell_1_3 2)))
 (let (($x4311 (= cell_1_3 1)))
 (or $x4311 $x2935 $x2806 $x4101 $x580 $x4911 $x5991 $x2769 $x3749)))))))))))
(assert
 (let (($x3628 (= cell_2_3 9)))
 (let (($x4002 (= cell_2_3 8)))
 (let (($x1374 (= cell_2_3 7)))
 (let (($x3232 (= cell_2_3 6)))
 (let (($x997 (= cell_2_3 5)))
 (let (($x3779 (= cell_2_3 4)))
 (let (($x1278 (= cell_2_3 3)))
 (let (($x1970 (= cell_2_3 2)))
 (let (($x5522 (= cell_2_3 1)))
 (or $x5522 $x1970 $x1278 $x3779 $x997 $x3232 $x1374 $x4002 $x3628)))))))))))
(assert
 (let (($x1721 (= cell_3_3 1)))
 (or $x1721 (= cell_3_3 2) (= cell_3_3 3) (= cell_3_3 4) (= cell_3_3 5) (= cell_3_3 6) (= cell_3_3 7) (= cell_3_3 8) (= cell_3_3 9))))
(assert
 (let (($x1360 (= cell_4_3 9)))
 (let (($x37 (= cell_4_3 8)))
 (let (($x680 (= cell_4_3 7)))
 (let (($x6123 (= cell_4_3 6)))
 (let (($x1842 (= cell_4_3 5)))
 (let (($x4778 (= cell_4_3 4)))
 (let (($x8389 (= cell_4_3 3)))
 (let (($x3470 (= cell_4_3 2)))
 (let (($x6338 (= cell_4_3 1)))
 (or $x6338 $x3470 $x8389 $x4778 $x1842 $x6123 $x680 $x37 $x1360)))))))))))
(assert
 (let (($x991 (= cell_5_3 9)))
 (let (($x5163 (= cell_5_3 8)))
 (let (($x3594 (= cell_5_3 7)))
 (let (($x4572 (= cell_5_3 6)))
 (let (($x3868 (= cell_5_3 5)))
 (let (($x416 (= cell_5_3 4)))
 (let (($x1235 (= cell_5_3 3)))
 (let (($x5174 (= cell_5_3 2)))
 (let (($x2827 (= cell_5_3 1)))
 (or $x2827 $x5174 $x1235 $x416 $x3868 $x4572 $x3594 $x5163 $x991)))))))))))
(assert
 (let (($x591 (= cell_6_3 2)))
 (let (($x4661 (= cell_6_3 1)))
 (or $x4661 $x591 (= cell_6_3 3) (= cell_6_3 4) (= cell_6_3 5) (= cell_6_3 6) (= cell_6_3 7) (= cell_6_3 8) (= cell_6_3 9)))))
(assert
 (let (($x1786 (= cell_7_3 9)))
 (let (($x4052 (= cell_7_3 8)))
 (let (($x5030 (= cell_7_3 7)))
 (let (($x4960 (= cell_7_3 6)))
 (let (($x3623 (= cell_7_3 5)))
 (let (($x947 (= cell_7_3 4)))
 (let (($x3843 (= cell_7_3 3)))
 (let (($x5540 (= cell_7_3 2)))
 (let (($x143 (= cell_7_3 1)))
 (or $x143 $x5540 $x3843 $x947 $x3623 $x4960 $x5030 $x4052 $x1786)))))))))))
(assert
 (let (($x4267 (= cell_8_3 1)))
 (or $x4267 (= cell_8_3 2) (= cell_8_3 3) (= cell_8_3 4) (= cell_8_3 5) (= cell_8_3 6) (= cell_8_3 7) (= cell_8_3 8) (= cell_8_3 9))))
(assert
 (let (($x6566 (= cell_9_3 9)))
 (let (($x3758 (= cell_9_3 8)))
 (let (($x5665 (= cell_9_3 7)))
 (let (($x5498 (= cell_9_3 6)))
 (let (($x750 (= cell_9_3 5)))
 (let (($x4032 (= cell_9_3 4)))
 (let (($x2262 (= cell_9_3 3)))
 (let (($x4384 (= cell_9_3 2)))
 (let (($x1336 (= cell_9_3 1)))
 (or $x1336 $x4384 $x2262 $x4032 $x750 $x5498 $x5665 $x3758 $x6566)))))))))))
(assert
 (let (($x4651 (= cell_1_4 9)))
 (let (($x1803 (= cell_1_4 8)))
 (let (($x4749 (= cell_1_4 7)))
 (let (($x1391 (= cell_1_4 6)))
 (let (($x4008 (= cell_1_4 5)))
 (let (($x827 (= cell_1_4 4)))
 (let (($x2312 (= cell_1_4 3)))
 (let (($x3505 (= cell_1_4 2)))
 (let (($x6534 (= cell_1_4 1)))
 (or $x6534 $x3505 $x2312 $x827 $x4008 $x1391 $x4749 $x1803 $x4651)))))))))))
(assert
 (let (($x4332 (= cell_2_4 9)))
 (let (($x1869 (= cell_2_4 8)))
 (let (($x1274 (= cell_2_4 7)))
 (let (($x3070 (= cell_2_4 6)))
 (let (($x3975 (= cell_2_4 5)))
 (let (($x4232 (= cell_2_4 4)))
 (let (($x4943 (= cell_2_4 3)))
 (let (($x4224 (= cell_2_4 2)))
 (let (($x2903 (= cell_2_4 1)))
 (or $x2903 $x4224 $x4943 $x4232 $x3975 $x3070 $x1274 $x1869 $x4332)))))))))))
(assert
 (let (($x4490 (= cell_3_4 9)))
 (let (($x2877 (= cell_3_4 8)))
 (let (($x3601 (= cell_3_4 7)))
 (let (($x171 (= cell_3_4 6)))
 (let (($x715 (= cell_3_4 5)))
 (let (($x4718 (= cell_3_4 4)))
 (let (($x5607 (= cell_3_4 3)))
 (let (($x1976 (= cell_3_4 2)))
 (let (($x52 (= cell_3_4 1)))
 (or $x52 $x1976 $x5607 $x4718 $x715 $x171 $x3601 $x2877 $x4490)))))))))))
(assert
 (let (($x471 (= cell_4_4 1)))
 (or $x471 (= cell_4_4 2) (= cell_4_4 3) (= cell_4_4 4) (= cell_4_4 5) (= cell_4_4 6) (= cell_4_4 7) (= cell_4_4 8) (= cell_4_4 9))))
(assert
 (let (($x4219 (= cell_5_4 9)))
 (let (($x3297 (= cell_5_4 8)))
 (let (($x4147 (= cell_5_4 7)))
 (let (($x624 (= cell_5_4 6)))
 (let (($x2480 (= cell_5_4 5)))
 (let (($x42 (= cell_5_4 4)))
 (let (($x1502 (= cell_5_4 3)))
 (let (($x68 (= cell_5_4 2)))
 (let (($x5550 (= cell_5_4 1)))
 (or $x5550 $x68 $x1502 $x42 $x2480 $x624 $x4147 $x3297 $x4219)))))))))))
(assert
 (let (($x2288 (= cell_6_4 1)))
 (or $x2288 (= cell_6_4 2) (= cell_6_4 3) (= cell_6_4 4) (= cell_6_4 5) (= cell_6_4 6) (= cell_6_4 7) (= cell_6_4 8) (= cell_6_4 9))))
(assert
 (let (($x1086 (= cell_7_4 9)))
 (let (($x155 (= cell_7_4 8)))
 (let (($x5467 (= cell_7_4 7)))
 (let (($x3490 (= cell_7_4 6)))
 (let (($x1424 (= cell_7_4 5)))
 (let (($x3003 (= cell_7_4 4)))
 (let (($x4914 (= cell_7_4 3)))
 (let (($x2843 (= cell_7_4 2)))
 (let (($x3619 (= cell_7_4 1)))
 (or $x3619 $x2843 $x4914 $x3003 $x1424 $x3490 $x5467 $x155 $x1086)))))))))))
(assert
 (let (($x5185 (= cell_8_4 9)))
 (let (($x4334 (= cell_8_4 8)))
 (let (($x1996 (= cell_8_4 7)))
 (let (($x2443 (= cell_8_4 6)))
 (let (($x1964 (= cell_8_4 5)))
 (let (($x4623 (= cell_8_4 4)))
 (let (($x3948 (= cell_8_4 3)))
 (let (($x5019 (= cell_8_4 2)))
 (let (($x2858 (= cell_8_4 1)))
 (or $x2858 $x5019 $x3948 $x4623 $x1964 $x2443 $x1996 $x4334 $x5185)))))))))))
(assert
 (let (($x32 (= cell_9_4 9)))
 (let (($x39 (= cell_9_4 8)))
 (let (($x5384 (= cell_9_4 7)))
 (let (($x8329 (= cell_9_4 6)))
 (let (($x1378 (= cell_9_4 5)))
 (let (($x3346 (= cell_9_4 4)))
 (let (($x186 (= cell_9_4 3)))
 (let (($x4638 (= cell_9_4 2)))
 (let (($x5448 (= cell_9_4 1)))
 (or $x5448 $x4638 $x186 $x3346 $x1378 $x8329 $x5384 $x39 $x32)))))))))))
(assert
 (let (($x3030 (= cell_1_5 9)))
 (let (($x203 (= cell_1_5 8)))
 (let (($x6584 (= cell_1_5 7)))
 (let (($x3936 (= cell_1_5 6)))
 (let (($x3892 (= cell_1_5 5)))
 (let (($x4247 (= cell_1_5 4)))
 (let (($x2970 (= cell_1_5 3)))
 (let (($x1769 (= cell_1_5 2)))
 (let (($x3613 (= cell_1_5 1)))
 (or $x3613 $x1769 $x2970 $x4247 $x3892 $x3936 $x6584 $x203 $x3030)))))))))))
(assert
 (let (($x3036 (= cell_2_5 2)))
 (or (= cell_2_5 1) $x3036 (= cell_2_5 3) (= cell_2_5 4) (= cell_2_5 5) (= cell_2_5 6) (= cell_2_5 7) (= cell_2_5 8) (= cell_2_5 9))))
(assert
 (let (($x633 (= cell_3_5 9)))
 (let (($x1338 (= cell_3_5 8)))
 (let (($x5123 (= cell_3_5 7)))
 (let (($x6003 (= cell_3_5 6)))
 (let (($x103 (= cell_3_5 5)))
 (let (($x4022 (= cell_3_5 4)))
 (let (($x4336 (= cell_3_5 3)))
 (let (($x4882 (= cell_3_5 2)))
 (let (($x2853 (= cell_3_5 1)))
 (or $x2853 $x4882 $x4336 $x4022 $x103 $x6003 $x5123 $x1338 $x633)))))))))))
(assert
 (let (($x576 (= cell_4_5 9)))
 (let (($x4388 (= cell_4_5 8)))
 (let (($x2989 (= cell_4_5 7)))
 (let (($x6426 (= cell_4_5 6)))
 (let (($x2878 (= cell_4_5 5)))
 (let (($x5650 (= cell_4_5 4)))
 (let (($x743 (= cell_4_5 3)))
 (let (($x106 (= cell_4_5 2)))
 (let (($x6895 (= cell_4_5 1)))
 (or $x6895 $x106 $x743 $x5650 $x2878 $x6426 $x2989 $x4388 $x576)))))))))))
(assert
 (let (($x541 (= cell_5_5 9)))
 (let (($x5196 (= cell_5_5 8)))
 (let (($x2987 (= cell_5_5 7)))
 (let (($x3796 (= cell_5_5 6)))
 (let (($x1675 (= cell_5_5 5)))
 (let (($x3364 (= cell_5_5 4)))
 (let (($x5987 (= cell_5_5 3)))
 (let (($x4045 (= cell_5_5 2)))
 (let (($x1688 (= cell_5_5 1)))
 (or $x1688 $x4045 $x5987 $x3364 $x1675 $x3796 $x2987 $x5196 $x541)))))))))))
(assert
 (let (($x1126 (= cell_6_5 9)))
 (let (($x105 (= cell_6_5 8)))
 (let (($x3580 (= cell_6_5 7)))
 (let (($x4891 (= cell_6_5 6)))
 (let (($x1387 (= cell_6_5 5)))
 (let (($x3812 (= cell_6_5 4)))
 (let (($x3044 (= cell_6_5 3)))
 (let (($x2522 (= cell_6_5 2)))
 (let (($x5187 (= cell_6_5 1)))
 (or $x5187 $x2522 $x3044 $x3812 $x1387 $x4891 $x3580 $x105 $x1126)))))))))))
(assert
 (let (($x4138 (= cell_7_5 9)))
 (let (($x3997 (= cell_7_5 8)))
 (let (($x4742 (= cell_7_5 7)))
 (let (($x5082 (= cell_7_5 6)))
 (let (($x2476 (= cell_7_5 5)))
 (let (($x5178 (= cell_7_5 4)))
 (let (($x3169 (= cell_7_5 3)))
 (let (($x5697 (= cell_7_5 2)))
 (let (($x5025 (= cell_7_5 1)))
 (or $x5025 $x5697 $x3169 $x5178 $x2476 $x5082 $x4742 $x3997 $x4138)))))))))))
(assert
 (let (($x2940 (= cell_8_5 9)))
 (let (($x881 (= cell_8_5 8)))
 (let (($x34 (= cell_8_5 7)))
 (let (($x6165 (= cell_8_5 6)))
 (let (($x5774 (= cell_8_5 5)))
 (let (($x4207 (= cell_8_5 4)))
 (let (($x954 (= cell_8_5 3)))
 (let (($x593 (= cell_8_5 2)))
 (let (($x2793 (= cell_8_5 1)))
 (or $x2793 $x593 $x954 $x4207 $x5774 $x6165 $x34 $x881 $x2940)))))))))))
(assert
 (let (($x3362 (= cell_9_5 1)))
 (or $x3362 (= cell_9_5 2) (= cell_9_5 3) (= cell_9_5 4) (= cell_9_5 5) (= cell_9_5 6) (= cell_9_5 7) (= cell_9_5 8) (= cell_9_5 9))))
(assert
 (let (($x1270 (= cell_1_6 1)))
 (or $x1270 (= cell_1_6 2) (= cell_1_6 3) (= cell_1_6 4) (= cell_1_6 5) (= cell_1_6 6) (= cell_1_6 7) (= cell_1_6 8) (= cell_1_6 9))))
(assert
 (let (($x5950 (= cell_2_6 9)))
 (let (($x488 (= cell_2_6 8)))
 (let (($x1024 (= cell_2_6 7)))
 (let (($x6300 (= cell_2_6 6)))
 (let (($x4899 (= cell_2_6 5)))
 (let (($x4121 (= cell_2_6 4)))
 (let (($x2560 (= cell_2_6 3)))
 (let (($x2861 (= cell_2_6 2)))
 (let (($x2404 (= cell_2_6 1)))
 (or $x2404 $x2861 $x2560 $x4121 $x4899 $x6300 $x1024 $x488 $x5950)))))))))))
(assert
 (let (($x1131 (= cell_3_6 2)))
 (let (($x4497 (= cell_3_6 1)))
 (or $x4497 $x1131 (= cell_3_6 3) (= cell_3_6 4) (= cell_3_6 5) (= cell_3_6 6) (= cell_3_6 7) (= cell_3_6 8) (= cell_3_6 9)))))
(assert
 (let (($x6172 (= cell_4_6 1)))
 (or $x6172 (= cell_4_6 2) (= cell_4_6 3) (= cell_4_6 4) (= cell_4_6 5) (= cell_4_6 6) (= cell_4_6 7) (= cell_4_6 8) (= cell_4_6 9))))
(assert
 (let (($x5531 (= cell_5_6 9)))
 (let (($x5663 (= cell_5_6 8)))
 (let (($x1069 (= cell_5_6 7)))
 (let (($x941 (= cell_5_6 6)))
 (let (($x4773 (= cell_5_6 5)))
 (let (($x3374 (= cell_5_6 4)))
 (let (($x1789 (= cell_5_6 3)))
 (let (($x558 (= cell_5_6 2)))
 (let (($x2121 (= cell_5_6 1)))
 (or $x2121 $x558 $x1789 $x3374 $x4773 $x941 $x1069 $x5663 $x5531)))))))))))
(assert
 (let (($x3043 (= cell_6_6 1)))
 (or $x3043 (= cell_6_6 2) (= cell_6_6 3) (= cell_6_6 4) (= cell_6_6 5) (= cell_6_6 6) (= cell_6_6 7) (= cell_6_6 8) (= cell_6_6 9))))
(assert
 (let (($x4283 (= cell_7_6 9)))
 (let (($x4295 (= cell_7_6 8)))
 (let (($x4720 (= cell_7_6 7)))
 (let (($x6377 (= cell_7_6 6)))
 (let (($x668 (= cell_7_6 5)))
 (let (($x4588 (= cell_7_6 4)))
 (let (($x2909 (= cell_7_6 3)))
 (let (($x1753 (= cell_7_6 2)))
 (let (($x5874 (= cell_7_6 1)))
 (or $x5874 $x1753 $x2909 $x4588 $x668 $x6377 $x4720 $x4295 $x4283)))))))))))
(assert
 (let (($x5180 (= cell_8_6 9)))
 (let (($x3911 (= cell_8_6 8)))
 (let (($x1090 (= cell_8_6 7)))
 (let (($x3922 (= cell_8_6 6)))
 (let (($x5997 (= cell_8_6 5)))
 (let (($x4519 (= cell_8_6 4)))
 (let (($x436 (= cell_8_6 3)))
 (let (($x3880 (= cell_8_6 2)))
 (let (($x3923 (= cell_8_6 1)))
 (or $x3923 $x3880 $x436 $x4519 $x5997 $x3922 $x1090 $x3911 $x5180)))))))))))
(assert
 (let (($x3947 (= cell_9_6 1)))
 (or $x3947 (= cell_9_6 2) (= cell_9_6 3) (= cell_9_6 4) (= cell_9_6 5) (= cell_9_6 6) (= cell_9_6 7) (= cell_9_6 8) (= cell_9_6 9))))
(assert
 (let (($x4449 (= cell_1_7 9)))
 (let (($x111 (= cell_1_7 8)))
 (let (($x4155 (= cell_1_7 7)))
 (let (($x6384 (= cell_1_7 6)))
 (let (($x5213 (= cell_1_7 5)))
 (let (($x3839 (= cell_1_7 4)))
 (let (($x5755 (= cell_1_7 3)))
 (let (($x4736 (= cell_1_7 2)))
 (let (($x1372 (= cell_1_7 1)))
 (or $x1372 $x4736 $x5755 $x3839 $x5213 $x6384 $x4155 $x111 $x4449)))))))))))
(assert
 (let (($x187 (= cell_2_7 1)))
 (or $x187 (= cell_2_7 2) (= cell_2_7 3) (= cell_2_7 4) (= cell_2_7 5) (= cell_2_7 6) (= cell_2_7 7) (= cell_2_7 8) (= cell_2_7 9))))
(assert
 (let (($x4132 (= cell_3_7 2)))
 (let (($x5728 (= cell_3_7 1)))
 (or $x5728 $x4132 (= cell_3_7 3) (= cell_3_7 4) (= cell_3_7 5) (= cell_3_7 6) (= cell_3_7 7) (= cell_3_7 8) (= cell_3_7 9)))))
(assert
 (let (($x4048 (= cell_4_7 9)))
 (let (($x167 (= cell_4_7 8)))
 (let (($x889 (= cell_4_7 7)))
 (let (($x4223 (= cell_4_7 6)))
 (let (($x4554 (= cell_4_7 5)))
 (let (($x5374 (= cell_4_7 4)))
 (let (($x769 (= cell_4_7 3)))
 (let (($x4729 (= cell_4_7 2)))
 (let (($x4641 (= cell_4_7 1)))
 (or $x4641 $x4729 $x769 $x5374 $x4554 $x4223 $x889 $x167 $x4048)))))))))))
(assert
 (let (($x4436 (= cell_5_7 9)))
 (let (($x5808 (= cell_5_7 8)))
 (let (($x833 (= cell_5_7 7)))
 (let (($x3010 (= cell_5_7 6)))
 (let (($x1896 (= cell_5_7 5)))
 (let (($x2468 (= cell_5_7 4)))
 (let (($x4851 (= cell_5_7 3)))
 (let (($x3679 (= cell_5_7 2)))
 (let (($x1415 (= cell_5_7 1)))
 (or $x1415 $x3679 $x4851 $x2468 $x1896 $x3010 $x833 $x5808 $x4436)))))))))))
(assert
 (let (($x5636 (= cell_6_7 1)))
 (or $x5636 (= cell_6_7 2) (= cell_6_7 3) (= cell_6_7 4) (= cell_6_7 5) (= cell_6_7 6) (= cell_6_7 7) (= cell_6_7 8) (= cell_6_7 9))))
(assert
 (let (($x3848 (= cell_7_7 9)))
 (let (($x4307 (= cell_7_7 8)))
 (let (($x5811 (= cell_7_7 7)))
 (let (($x3898 (= cell_7_7 6)))
 (let (($x5561 (= cell_7_7 5)))
 (let (($x1345 (= cell_7_7 4)))
 (let (($x5046 (= cell_7_7 3)))
 (let (($x4930 (= cell_7_7 2)))
 (let (($x1798 (= cell_7_7 1)))
 (or $x1798 $x4930 $x5046 $x1345 $x5561 $x3898 $x5811 $x4307 $x3848)))))))))))
(assert
 (let (($x4021 (= cell_8_7 1)))
 (or $x4021 (= cell_8_7 2) (= cell_8_7 3) (= cell_8_7 4) (= cell_8_7 5) (= cell_8_7 6) (= cell_8_7 7) (= cell_8_7 8) (= cell_8_7 9))))
(assert
 (let (($x5447 (= cell_9_7 1)))
 (or $x5447 (= cell_9_7 2) (= cell_9_7 3) (= cell_9_7 4) (= cell_9_7 5) (= cell_9_7 6) (= cell_9_7 7) (= cell_9_7 8) (= cell_9_7 9))))
(assert
 (let (($x682 (= cell_1_8 2)))
 (or (= cell_1_8 1) $x682 (= cell_1_8 3) (= cell_1_8 4) (= cell_1_8 5) (= cell_1_8 6) (= cell_1_8 7) (= cell_1_8 8) (= cell_1_8 9))))
(assert
 (let (($x5682 (= cell_2_8 9)))
 (let (($x4405 (= cell_2_8 8)))
 (let (($x225 (= cell_2_8 7)))
 (let (($x1831 (= cell_2_8 6)))
 (let (($x3167 (= cell_2_8 5)))
 (let (($x1910 (= cell_2_8 4)))
 (let (($x2953 (= cell_2_8 3)))
 (let (($x1963 (= cell_2_8 2)))
 (let (($x3662 (= cell_2_8 1)))
 (or $x3662 $x1963 $x2953 $x1910 $x3167 $x1831 $x225 $x4405 $x5682)))))))))))
(assert
 (let (($x4374 (= cell_3_8 9)))
 (let (($x7797 (= cell_3_8 8)))
 (let (($x3954 (= cell_3_8 7)))
 (let (($x2534 (= cell_3_8 6)))
 (let (($x2418 (= cell_3_8 5)))
 (let (($x945 (= cell_3_8 4)))
 (let (($x3510 (= cell_3_8 3)))
 (let (($x4066 (= cell_3_8 2)))
 (let (($x5398 (= cell_3_8 1)))
 (or $x5398 $x4066 $x3510 $x945 $x2418 $x2534 $x3954 $x7797 $x4374)))))))))))
(assert
 (let (($x1602 (= cell_4_8 9)))
 (let (($x4584 (= cell_4_8 8)))
 (let (($x4989 (= cell_4_8 7)))
 (let (($x2504 (= cell_4_8 6)))
 (let (($x5397 (= cell_4_8 5)))
 (let (($x291 (= cell_4_8 4)))
 (let (($x5706 (= cell_4_8 3)))
 (let (($x2291 (= cell_4_8 2)))
 (let (($x230 (= cell_4_8 1)))
 (or $x230 $x2291 $x5706 $x291 $x5397 $x2504 $x4989 $x4584 $x1602)))))))))))
(assert
 (let (($x374 (= cell_5_8 1)))
 (or $x374 (= cell_5_8 2) (= cell_5_8 3) (= cell_5_8 4) (= cell_5_8 5) (= cell_5_8 6) (= cell_5_8 7) (= cell_5_8 8) (= cell_5_8 9))))
(assert
 (let (($x3837 (= cell_6_8 2)))
 (let (($x777 (= cell_6_8 1)))
 (or $x777 $x3837 (= cell_6_8 3) (= cell_6_8 4) (= cell_6_8 5) (= cell_6_8 6) (= cell_6_8 7) (= cell_6_8 8) (= cell_6_8 9)))))
(assert
 (let (($x376 (= cell_7_8 9)))
 (let (($x3711 (= cell_7_8 8)))
 (let (($x4122 (= cell_7_8 7)))
 (let (($x3478 (= cell_7_8 6)))
 (let (($x5364 (= cell_7_8 5)))
 (let (($x5769 (= cell_7_8 4)))
 (let (($x113 (= cell_7_8 3)))
 (let (($x4457 (= cell_7_8 2)))
 (let (($x5976 (= cell_7_8 1)))
 (or $x5976 $x4457 $x113 $x5769 $x5364 $x3478 $x4122 $x3711 $x376)))))))))))
(assert
 (let (($x2413 (= cell_8_8 2)))
 (let (($x3744 (= cell_8_8 1)))
 (or $x3744 $x2413 (= cell_8_8 3) (= cell_8_8 4) (= cell_8_8 5) (= cell_8_8 6) (= cell_8_8 7) (= cell_8_8 8) (= cell_8_8 9)))))
(assert
 (let (($x1423 (= cell_9_8 2)))
 (let (($x6028 (= cell_9_8 1)))
 (or $x6028 $x1423 (= cell_9_8 3) (= cell_9_8 4) (= cell_9_8 5) (= cell_9_8 6) (= cell_9_8 7) (= cell_9_8 8) (= cell_9_8 9)))))
(assert
 (let (($x713 (= cell_1_9 9)))
 (let (($x862 (= cell_1_9 8)))
 (let (($x5305 (= cell_1_9 7)))
 (let (($x2333 (= cell_1_9 6)))
 (let (($x2750 (= cell_1_9 5)))
 (let (($x6448 (= cell_1_9 4)))
 (let (($x1834 (= cell_1_9 3)))
 (let (($x1005 (= cell_1_9 2)))
 (let (($x3477 (= cell_1_9 1)))
 (or $x3477 $x1005 $x1834 $x6448 $x2750 $x2333 $x5305 $x862 $x713)))))))))))
(assert
 (let (($x3994 (= cell_2_9 9)))
 (let (($x5845 (= cell_2_9 8)))
 (let (($x7334 (= cell_2_9 7)))
 (let (($x4776 (= cell_2_9 6)))
 (let (($x5640 (= cell_2_9 5)))
 (let (($x4126 (= cell_2_9 4)))
 (let (($x618 (= cell_2_9 3)))
 (let (($x2821 (= cell_2_9 2)))
 (let (($x3479 (= cell_2_9 1)))
 (or $x3479 $x2821 $x618 $x4126 $x5640 $x4776 $x7334 $x5845 $x3994)))))))))))
(assert
 (let (($x3982 (= cell_3_9 9)))
 (let (($x3791 (= cell_3_9 8)))
 (let (($x536 (= cell_3_9 7)))
 (let (($x5994 (= cell_3_9 6)))
 (let (($x3506 (= cell_3_9 5)))
 (let (($x3829 (= cell_3_9 4)))
 (let (($x5327 (= cell_3_9 3)))
 (let (($x1942 (= cell_3_9 2)))
 (let (($x2883 (= cell_3_9 1)))
 (or $x2883 $x1942 $x5327 $x3829 $x3506 $x5994 $x536 $x3791 $x3982)))))))))))
(assert
 (let (($x1452 (= cell_4_9 9)))
 (let (($x1224 (= cell_4_9 8)))
 (let (($x1815 (= cell_4_9 7)))
 (let (($x608 (= cell_4_9 6)))
 (let (($x2524 (= cell_4_9 5)))
 (let (($x442 (= cell_4_9 4)))
 (let (($x4074 (= cell_4_9 3)))
 (let (($x1771 (= cell_4_9 2)))
 (let (($x1416 (= cell_4_9 1)))
 (or $x1416 $x1771 $x4074 $x442 $x2524 $x608 $x1815 $x1224 $x1452)))))))))))
(assert
 (let (($x4765 (= cell_5_9 9)))
 (let (($x4234 (= cell_5_9 8)))
 (let (($x4473 (= cell_5_9 7)))
 (let (($x2455 (= cell_5_9 6)))
 (let (($x5625 (= cell_5_9 5)))
 (let (($x2070 (= cell_5_9 4)))
 (let (($x4637 (= cell_5_9 3)))
 (let (($x632 (= cell_5_9 2)))
 (let (($x4832 (= cell_5_9 1)))
 (or $x4832 $x632 $x4637 $x2070 $x5625 $x2455 $x4473 $x4234 $x4765)))))))))))
(assert
 (let (($x4905 (= cell_6_9 9)))
 (let (($x4316 (= cell_6_9 8)))
 (let (($x3958 (= cell_6_9 7)))
 (let (($x3893 (= cell_6_9 6)))
 (let (($x1600 (= cell_6_9 5)))
 (let (($x1900 (= cell_6_9 4)))
 (let (($x6991 (= cell_6_9 3)))
 (let (($x247 (= cell_6_9 2)))
 (let (($x6358 (= cell_6_9 1)))
 (or $x6358 $x247 $x6991 $x1900 $x1600 $x3893 $x3958 $x4316 $x4905)))))))))))
(assert
 (let (($x1157 (= cell_7_9 1)))
 (or $x1157 (= cell_7_9 2) (= cell_7_9 3) (= cell_7_9 4) (= cell_7_9 5) (= cell_7_9 6) (= cell_7_9 7) (= cell_7_9 8) (= cell_7_9 9))))
(assert
 (let (($x3348 (= cell_8_9 1)))
 (or $x3348 (= cell_8_9 2) (= cell_8_9 3) (= cell_8_9 4) (= cell_8_9 5) (= cell_8_9 6) (= cell_8_9 7) (= cell_8_9 8) (= cell_8_9 9))))
(assert
 (let (($x1663 (= cell_9_9 1)))
 (or $x1663 (= cell_9_9 2) (= cell_9_9 3) (= cell_9_9 4) (= cell_9_9 5) (= cell_9_9 6) (= cell_9_9 7) (= cell_9_9 8) (= cell_9_9 9))))
(assert
 (and (distinct cell_1_1 cell_1_2 cell_1_3 cell_1_4 cell_1_5 cell_1_6 cell_1_7 cell_1_8 cell_1_9) true))
(assert
 (and (distinct cell_2_1 cell_2_2 cell_2_3 cell_2_4 cell_2_5 cell_2_6 cell_2_7 cell_2_8 cell_2_9) true))
(assert
 (and (distinct cell_3_1 cell_3_2 cell_3_3 cell_3_4 cell_3_5 cell_3_6 cell_3_7 cell_3_8 cell_3_9) true))
(assert
 (and (distinct cell_4_1 cell_4_2 cell_4_3 cell_4_4 cell_4_5 cell_4_6 cell_4_7 cell_4_8 cell_4_9) true))
(assert
 (and (distinct cell_5_1 cell_5_2 cell_5_3 cell_5_4 cell_5_5 cell_5_6 cell_5_7 cell_5_8 cell_5_9) true))
(assert
 (and (distinct cell_6_1 cell_6_2 cell_6_3 cell_6_4 cell_6_5 cell_6_6 cell_6_7 cell_6_8 cell_6_9) true))
(assert
 (and (distinct cell_7_1 cell_7_2 cell_7_3 cell_7_4 cell_7_5 cell_7_6 cell_7_7 cell_7_8 cell_7_9) true))
(assert
 (and (distinct cell_8_1 cell_8_2 cell_8_3 cell_8_4 cell_8_5 cell_8_6 cell_8_7 cell_8_8 cell_8_9) true))
(assert
 (and (distinct cell_9_1 cell_9_2 cell_9_3 cell_9_4 cell_9_5 cell_9_6 cell_9_7 cell_9_8 cell_9_9) true))
(assert
 (and (distinct cell_1_1 cell_2_1 cell_3_1 cell_4_1 cell_5_1 cell_6_1 cell_7_1 cell_8_1 cell_9_1) true))
(assert
 (and (distinct cell_1_2 cell_2_2 cell_3_2 cell_4_2 cell_5_2 cell_6_2 cell_7_2 cell_8_2 cell_9_2) true))
(assert
 (and (distinct cell_1_3 cell_2_3 cell_3_3 cell_4_3 cell_5_3 cell_6_3 cell_7_3 cell_8_3 cell_9_3) true))
(assert
 (and (distinct cell_1_4 cell_2_4 cell_3_4 cell_4_4 cell_5_4 cell_6_4 cell_7_4 cell_8_4 cell_9_4) true))
(assert
 (and (distinct cell_1_5 cell_2_5 cell_3_5 cell_4_5 cell_5_5 cell_6_5 cell_7_5 cell_8_5 cell_9_5) true))
(assert
 (and (distinct cell_1_6 cell_2_6 cell_3_6 cell_4_6 cell_5_6 cell_6_6 cell_7_6 cell_8_6 cell_9_6) true))
(assert
 (and (distinct cell_1_7 cell_2_7 cell_3_7 cell_4_7 cell_5_7 cell_6_7 cell_7_7 cell_8_7 cell_9_7) true))
(assert
 (and (distinct cell_1_8 cell_2_8 cell_3_8 cell_4_8 cell_5_8 cell_6_8 cell_7_8 cell_8_8 cell_9_8) true))
(assert
 (and (distinct cell_1_9 cell_2_9 cell_3_9 cell_4_9 cell_5_9 cell_6_9 cell_7_9 cell_8_9 cell_9_9) true))
(assert
 (and (distinct cell_1_1 cell_1_2 cell_1_3 cell_2_1 cell_2_2 cell_2_3 cell_3_1 cell_3_2 cell_3_3) true))
(assert
 (and (distinct cell_1_4 cell_1_5 cell_1_6 cell_2_4 cell_2_5 cell_2_6 cell_3_4 cell_3_5 cell_3_6) true))
(assert
 (and (distinct cell_1_7 cell_1_8 cell_1_9 cell_2_7 cell_2_8 cell_2_9 cell_3_7 cell_3_8 cell_3_9) true))
(assert
 (and (distinct cell_4_1 cell_4_2 cell_4_3 cell_5_1 cell_5_2 cell_5_3 cell_6_1 cell_6_2 cell_6_3) true))
(assert
 (and (distinct cell_4_4 cell_4_5 cell_4_6 cell_5_4 cell_5_5 cell_5_6 cell_6_4 cell_6_5 cell_6_6) true))
(assert
 (and (distinct cell_4_7 cell_4_8 cell_4_9 cell_5_7 cell_5_8 cell_5_9 cell_6_7 cell_6_8 cell_6_9) true))
(assert
 (and (distinct cell_7_1 cell_7_2 cell_7_3 cell_8_1 cell_8_2 cell_8_3 cell_9_1 cell_9_2 cell_9_3) true))
(assert
 (and (distinct cell_7_4 cell_7_5 cell_7_6 cell_8_4 cell_8_5 cell_8_6 cell_9_4 cell_9_5 cell_9_6) true))
(assert
 (and (distinct cell_7_7 cell_7_8 cell_7_9 cell_8_7 cell_8_8 cell_8_9 cell_9_7 cell_9_8 cell_9_9) true))
(assert
 (let (($x2740 (and (distinct cell_5_9 cell_6_8 cell_7_7 cell_8_6) true)))
 (let (($x6044 (and (distinct cell_2_9 cell_3_8 cell_4_7 cell_5_6 cell_6_5 cell_7_4 cell_8_3 cell_9_2) true)))
 (let (($x5840 (and (distinct cell_1_8 cell_2_7 cell_3_6 cell_4_5 cell_5_4 cell_6_3 cell_7_2 cell_8_1) true)))
 (let (($x3254 (and (distinct cell_1_5 cell_2_4 cell_3_3 cell_4_2) true)))
 (let (($x2929 (and (distinct cell_5_1 cell_6_2 cell_7_3 cell_8_4) true)))
 (let (($x1823 (and (distinct cell_2_1 cell_3_2 cell_4_3 cell_5_4 cell_6_5 cell_7_6 cell_8_7 cell_9_8) true)))
 (let (($x3018 (and (distinct cell_1_2 cell_2_3 cell_3_4 cell_4_5 cell_5_6 cell_6_7 cell_7_8 cell_8_9) true)))
 (let (($x1534 (and (distinct cell_1_5 cell_2_6 cell_3_7 cell_4_8) true)))
 (and $x1534 $x3018 $x1823 $x2929 $x3254 $x5840 $x6044 $x2740))))))))))
(assert
 (= cell_3_2 2))
(check-sat)
